
Gurobi 13.0.2 (win64) logging started Fri Jul 24 09:29:48 2026

Set parameter LogFile to value "E:\codes\ExactEBRP\results\gf_c0_mechanism_transfer_c5_round30\runs\stage2__moderate_seed5301__c5_candidate__300s\external\native_logs\L0.1.1.1.1.1.0_lp.gurobi.log"
Gurobi Optimizer version 13.0.2 build v13.0.2rc1 (win64 - Windows 10.0 (19045.2))

CPU model: 12th Gen Intel(R) Core(TM) i7-12700KF, instruction set [SSE2|AVX|AVX2]
Thread count: 12 physical cores, 20 logical processors, using up to 1 threads

Non-default parameters:
TimeLimit  227.5767894
MIPGap  0
MIPGapAbs  0
LogToConsole  0
Threads  1

Optimize a model with 11944 rows, 3386 columns and 67436 nonzeros (Min)
Model fingerprint: 0x75cc12b1
Model has 21 linear objective coefficients
Coefficient statistics:
  Matrix range     [9e-03, 1e+04]
  Objective range  [9e-03, 1e+00]
  Bounds range     [4e-02, 2e+02]
  RHS range        [4e-02, 5e+04]

Presolve removed 611 rows and 104 columns
Presolve time: 0.04s
Presolved: 11333 rows, 3308 columns, 65015 nonzeros

Iteration    Objective       Primal Inf.    Dual Inf.      Time
       0    4.0895136e-02   3.834136e+02   0.000000e+00      0s
    2364    8.4117949e-02   0.000000e+00   0.000000e+00      0s

Solved in 2364 iterations and 0.19 seconds (0.56 work units)
Optimal objective  8.411794903e-02

User-callback calls 2511, time in user-callback 0.00 sec
